;; Mutation-Based Equivalence Benchmark
;; Source:     AutomatArk / instance11471.smt2
;; Mutations:  union_to_inter, star_to_plus, bound_upper_inc
;; Status:     sat
;;
;; Original regex vs mutated regex
;; Equivalence check: unsat ⟺ L(R1) = L(R2)

(set-info :smt-lib-version 2.6)
(set-info :category "mutation")
(set-info :status sat)
(set-logic QF_S)


;; R1: original
;; R2: mutated (union_to_inter, star_to_plus, bound_upper_inc)
(assert
  (not
    (=
      (re.++ (re.union (str.to_re "https://") (str.to_re "http://") (re.++ (str.to_re "www") re.allchar)) (re.+ (re.union (re.range "a" "z") (re.range "A" "Z") (re.range "0" "9") (str.to_re "-") (str.to_re "."))) (str.to_re ".") ((_ re.loop 2 3) (re.union (re.range "a" "z") (re.range "A" "Z"))) (re.opt (re.++ (str.to_re ":") (re.* (re.union (re.range "a" "z") (re.range "A" "Z") (re.range "0" "9"))))) (re.opt (str.to_re "/")) (re.* (re.union (re.range "a" "z") (re.range "A" "Z") (re.range "0" "9") (str.to_re "-") (str.to_re ".") (str.to_re "_") (str.to_re "?") (str.to_re ",") (str.to_re "'") (str.to_re "/") (str.to_re "\u{5c}") (str.to_re "+") (str.to_re "&") (str.to_re "%") (str.to_re "$") (str.to_re "#") (str.to_re "=") (str.to_re "~"))) (str.to_re "\u{a}"))
      (re.++ (re.union (str.to_re "https://") (str.to_re "http://") (re.++ (str.to_re "www") re.allchar)) (re.+ (re.union (re.range "a" "z") (re.range "A" "Z") (re.range "0" "9") (str.to_re "-") (str.to_re "."))) (str.to_re ".") ((_ re.loop 2 4) (re.union (re.range "a" "z") (re.range "A" "Z"))) (re.opt (re.++ (str.to_re ":") (re.+ (re.union (re.range "a" "z") (re.range "A" "Z") (re.range "0" "9"))))) (re.opt (str.to_re "/")) (re.* (re.inter (re.range "a" "z") (re.range "A" "Z") (re.range "0" "9") (str.to_re "-") (str.to_re ".") (str.to_re "_") (str.to_re "?") (str.to_re ",") (str.to_re "'") (str.to_re "/") (str.to_re "\u{5c}") (str.to_re "+") (str.to_re "&") (str.to_re "%") (str.to_re "$") (str.to_re "#") (str.to_re "=") (str.to_re "~"))) (str.to_re "\u{a}")))))

(check-sat)
(exit)
